8738,9291
7983,8236
3216,3157
107,109
5605,4823
43,222
5824,5264
343,680
336,1106
9933,9998
3395,3579
8840,8799
5061,5202
2111,3046
3484,3214
6898,6041
7996,8006
124,997
6226,5593
5164,4596
5565,6194
481,1362
347,1009
9701,10618
2647,2373
3694,3753
9622,10037
8522,9381
2550,1982
5067,5795
7557,8510
2995,2320
9850,8853
3568,3228
1616,2270
5365,4744
4574,5280
5597,6526
7643,7764
26,-143
8391,8196
1696,2401
1219,1666
4787,4874
4638,4670
7278,7901
1374,641
5964,6898
8310,8072
3172,2243
172,-612
1068,2039
4270,4557
8922,9204
1865,1116
8821,8709
8242,9049
3145,2964
9412,9330
550,1178
434,863
240,-204
3107,3050
9513,10226
3507,3163
8098,7916
5212,4899
8943,9686
1216,1957
9905,9525
6840,6771
4384,5223
8988,9584
7175,6951
4015,3701

19427
20834
19447
16208
21316
18485
16725
20502
20853
